(set-option :incremental false)
(set-logic ALL)
(declare-const BAV1 Bool)
(declare-const BAV2 Bool)
(declare-const BAV3 Bool)
(declare-sort Index 0)
(declare-sort Element 0)
(declare-fun v4 () Index)
(declare-fun v3 () Index)
(declare-fun v5 () Element)
(declare-fun v1 () (Array Index Element))
(assert (= BAV1 (distinct (ite (distinct (select (store v1 v4 v5) v3) (select v1 v3)) v4 v3) (ite (= (select (store v1 v4 v5) v3) (select (store (store v1 v4 v5) v4 v5) v3)) v3 v4))))
(assert (= BAV2 (distinct (select (store v1 v4 v5) v3) (select v1 v3))))
(assert (= BAV3 (= (select (store v1 v4 v5) v3) (select (store (store v1 v4 v5) v4 v5) v3))))
(check-sat-assuming ((distinct (ite (distinct (select (store v1 v4 v5) v3) (select v1 v3)) v4 v3) (ite (= (select (store v1 v4 v5) v3) (select (store (store v1 v4 v5) v4 v5) v3)) v3 v4))))
(get-model)